     Program PWSCF v.6.1 starts on  8Jun2021 at  9:50:25

     Current dimensions of program PWSCF are:
     Max number of different atomic species (ntypx) = 10
     Max number of k-points (npk) =  40000
     Max angular momentum in pseudopotentials (lmaxx) =  3
               file Sn.pbe-dn-rrkjus_psl.1.0.0.UPF: wavefunction(s)  5S 4D renormalized

     gamma-point specific algorithms are used

     Subspace diagonalization in iterative solution of the eigenvalue problem:
     a serial algorithm will be used

     Title:
     kpoint_1_1_1(SCF)

     bravais-lattice index     =            4
     lattice parameter (alat)  =       6.0325  a.u.
     unit-cell volume          =     796.7448 (a.u.)^3
     number of atoms/cell      =            6
     number of atomic types    =            3
     number of electrons       =        52.00
     number of Kohn-Sham states=           31
     kinetic-energy cutoff     =      47.0743  Ry
     charge density cutoff     =     423.6680  Ry
     convergence threshold     =      1.0E-06
     mixing beta               =       0.4000
     number of iterations used =            8  plain     mixing
     Exchange-correlation      =  SLA  PW   PBE  PBE ( 1  4  3  4 0 0)

     celldm(1)=   6.032459  celldm(2)=   0.000000  celldm(3)=   4.190882
     celldm(4)=   0.000000  celldm(5)=   0.000000  celldm(6)=   0.000000

     crystal axes: (cart. coord. in units of alat)
               a(1) = (   1.000000   0.000000   0.000000 )
               a(2) = (  -0.500000   0.866025   0.000000 )
               a(3) = (   0.000000   0.000000   4.190882 )

     reciprocal axes: (cart. coord. in units 2 pi/alat)
               b(1) = (  1.000000  0.577350 -0.000000 )
               b(2) = (  0.000000  1.154701  0.000000 )
               b(3) = (  0.000000 -0.000000  0.238613 )

     PseudoPot. # 1 for Sn read from file:
     C:\Users\ROG\.burai\.pseudopot/Sn.pbe-dn-rrkjus_psl.1.0.0.UPF
     MD5 check sum: 9f7ad82915168e737b3f6a04b7e1f5ac
     Pseudo is Ultrasoft + core correction, Zval = 14.0
     Generated using "atomic" code by A. Dal Corso  v.5.1.2
     Using radial grid of 1243 points,  6 beta functions with:
                l(1) =   0
                l(2) =   0
                l(3) =   1
                l(4) =   1
                l(5) =   2
                l(6) =   2
     Q(r) pseudized with 0 coefficients

     PseudoPot. # 2 for Se read from file:
     C:\Users\ROG\.burai\.pseudopot/Se.pbe-n-rrkjus_psl.1.0.0.UPF
     MD5 check sum: 5f5e5c15c95449acb3b45b44a6529d2d
     Pseudo is Ultrasoft + core correction, Zval =  6.0
     Generated using "atomic" code by A. Dal Corso  v.5.1.2
     Using radial grid of 1211 points,  4 beta functions with:
                l(1) =   0
                l(2) =   0
                l(3) =   1
                l(4) =   1
     Q(r) pseudized with 0 coefficients

     PseudoPot. # 3 for W  read from file:
     C:\Users\ROG\.burai\.pseudopot/W.pbe-nsp-van.UPF
     MD5 check sum: bb4869ded537247882558ca8e5af5f09
     Pseudo is Ultrasoft + core correction, Zval = 14.0
     Generated by new atomic code, or converted to UPF format
     Using radial grid of  923 points,  6 beta functions with:
                l(1) =   0
                l(2) =   0
                l(3) =   1
                l(4) =   1
                l(5) =   2
                l(6) =   2
     Q(r) pseudized with  6 coefficients,  rinner =    1.000   1.000   1.000
                                                       1.000   1.000

     atomic species   valence    mass     pseudopotential
        Sn            14.00   118.71000     Sn( 1.00)
        Se             6.00    78.96000     Se( 1.00)
        W             14.00   183.84000     W ( 1.00)

     Starting magnetic structure
     atomic species   magnetization
        Sn           0.000
        Se           0.000
        W            0.200

     12 Sym. Ops. (no inversion) found ( 6 have fractional translation)

   Cartesian axes

     site n.     atom                  positions (alat units)
         1           Sn  tau(   1) = (  -0.0000006   0.5773501   3.1431600  )
         2           Se  tau(   2) = (   0.5000003   0.2886747   2.6531705  )
         3           Se  tau(   3) = (  -0.0000006   0.5773501   1.5377093  )
         4           Se  tau(   4) = (   0.5000003   0.2886747   3.6331491  )
         5           Se  tau(   5) = (  -0.0000006   0.5773501   0.5577306  )
         6           W   tau(   6) = (   0.5000003   0.2886747   1.0477201  )

     number of k points=     1  gaussian smearing, width (Ry)=  0.0100
                       cart. coord. in units 2pi/alat
        k(    1) = (   0.0000000   0.0000000   0.0000000), wk =   1.0000000

     Initial potential from superposition of free atoms

     starting charge   51.99782, renormalised to   52.00000
     Starting wfc are   38 randomized atomic wfcs

     Self-consistent Calculation

     iteration #  1     ecut=    47.07 Ry     beta=0.40
     Davidson diagonalization with overlap
     ethr =  1.00E-02,  avg # of iterations =  2.0

     total energy              =    -402.25781290 Ry
     Harris-Foulkes estimate   =    -403.33239017 Ry
     estimated scf accuracy    <       2.18838005 Ry

     total magnetization       =     0.00 Bohr mag/cell
     absolute magnetization    =     0.77 Bohr mag/cell

[...]

     total energy              =    -402.98150968 Ry
     Harris-Foulkes estimate   =    -402.98150910 Ry
     estimated scf accuracy    <       0.00000173 Ry

[...]

     iteration # 19     ecut=    47.07 Ry     beta=0.40
     Davidson diagonalization with overlap
     ethr =  3.33E-09,  avg # of iterations =  2.5

     Magnetic moment per site:
     atom:    1    charge:   10.8631    magn:    0.0000    constr:    0.0000
     atom:    2    charge:    4.0373    magn:    0.0000    constr:    0.0000
     atom:    3    charge:    3.6528    magn:    0.0013    constr:    0.0000
     atom:    4    charge:    4.0372    magn:    0.0000    constr:    0.0000
     atom:    5    charge:    3.6524    magn:    0.0013    constr:    0.0000
     atom:    6    charge:   10.8840    magn:   -0.0024    constr:    0.0000

     End of self-consistent calculation

 ------ SPIN UP ------------

          k = 0.0000 0.0000 0.0000 (  2206 PWs)   bands (ev):

   -60.8547 -25.3901 -25.2446 -25.2446 -12.1621 -12.1621 -12.1289 -11.9534
   -11.9533  -5.7431  -5.2256  -3.7288  -2.5443   3.7560   4.5056   7.7145
     8.3386   8.3386   9.4606   9.4607   9.5131  11.0455  12.1572  12.1573
    13.5904  13.5904  14.1248  14.1249  14.4309  14.4487  14.4487

 ------ SPIN DOWN ----------

          k = 0.0000 0.0000 0.0000 (  2206 PWs)   bands (ev):

   -60.8577 -25.3943 -25.2487 -25.2487 -12.1621 -12.1621 -12.1289 -11.9534
   -11.9534  -5.7431  -5.2232  -3.7255  -2.5443   3.7560   4.5055   7.7152
     8.3383   8.3383   9.4608   9.4608   9.5136  11.0432  12.1572  12.1572
    13.5904  13.5904  14.1236  14.1236  14.4309  14.4493  14.4493

     the Fermi energy is    13.8573 ev

!    total energy              =    -402.98151005 Ry
     Harris-Foulkes estimate   =    -402.98151025 Ry
     estimated scf accuracy    <       0.00000080 Ry

     The total energy is the sum of the following terms:

     one-electron contribution =    -215.28198452 Ry
     hartree contribution      =     138.49741672 Ry
     xc contribution           =    -117.15755661 Ry
     ewald contribution        =    -209.03890463 Ry
     smearing contrib. (-TS)   =      -0.00048101 Ry

     total magnetization       =    -0.00 Bohr mag/cell
     absolute magnetization    =     0.01 Bohr mag/cell

     convergence has been achieved in  19 iterations

     Writing output data file espresso.save

     General routines

     Parallel routines

   This run was terminated on:   9:50:49   8Jun2021

   JOB DONE.