     Program PWSCF v.6.4.1 starts on  8Jun2021 at 13:17:33

     Waiting for input...
     Reading input from standard input

     Current dimensions of program PWSCF are:
     Max number of different atomic species (ntypx) = 10
     Max number of k-points (npk) =  40000
     Max angular momentum in pseudopotentials (lmaxx) =  3
     Message from routine read_upf::
     Pseudo file Sn.pbe-dn-rrkjus_psl.1.0.0.UPF has been fixed on the fly.
To avoid this message in the future, permanently fix
 your pseudo files following these instructions:
     Message from routine read_upf::
     Pseudo file Se.pbe-n-rrkjus_psl.1.0.0.UPF has been fixed on the fly.
To avoid this message in the future, permanently fix
 your pseudo files following these instructions:
               file Sn.pbe-dn-rrkjus_psl.1.0.0.UPF: wavefunction(s)  5S 4D renormalized

     Subspace diagonalization in iterative solution of the eigenvalue problem:
     a serial algorithm will be used

     bravais-lattice index     =            4
     lattice parameter (alat)  =       6.0325  a.u.
     unit-cell volume          =     796.7448 (a.u.)^3
     number of atoms/cell      =            6
     number of atomic types    =            3
     number of electrons       =        52.00
     number of Kohn-Sham states=           31
     kinetic-energy cutoff     =      47.0743  Ry
     charge density cutoff     =     423.6680  Ry
     convergence threshold     =      1.0E-06
     mixing beta               =       0.4000
     number of iterations used =            8  plain     mixing
     Exchange-correlation      =  SLA  PW   PBE  PBE ( 1  4  3  4 0 0)

     celldm(1)=   6.032459  celldm(2)=   0.000000  celldm(3)=   4.190882
     celldm(4)=   0.000000  celldm(5)=   0.000000  celldm(6)=   0.000000

     crystal axes: (cart. coord. in units of alat)
               a(1) = (   1.000000   0.000000   0.000000 )
               a(2) = (  -0.500000   0.866025   0.000000 )
               a(3) = (   0.000000   0.000000   4.190882 )

     reciprocal axes: (cart. coord. in units 2 pi/alat)
               b(1) = (  1.000000  0.577350 -0.000000 )
               b(2) = (  0.000000  1.154701  0.000000 )
               b(3) = (  0.000000 -0.000000  0.238613 )

     PseudoPot. # 1 for Sn read from file:
     ./pseudo\Sn.pbe-dn-rrkjus_psl.1.0.0.UPF
     MD5 check sum: 6923576d35b7bb477f9d834f190d2db6
     Pseudo is Ultrasoft + core correction, Zval = 14.0
     Generated using "atomic" code by A. Dal Corso v.5.1.2
     Using radial grid of 1243 points,  6 beta functions with:
                l(1) =   0
                l(2) =   0
                l(3) =   1
                l(4) =   1
                l(5) =   2
                l(6) =   2
     Q(r) pseudized with 0 coefficients

     PseudoPot. # 2 for Se read from file:
     ./pseudo\Se.pbe-n-rrkjus_psl.1.0.0.UPF
     MD5 check sum: b4fde84b927950421ac83de11f467c93
     Pseudo is Ultrasoft + core correction, Zval =  6.0
     Generated using "atomic" code by A. Dal Corso v.5.1.2
     Using radial grid of 1211 points,  4 beta functions with:
                l(1) =   0
                l(2) =   0
                l(3) =   1
                l(4) =   1
     Q(r) pseudized with 0 coefficients

     PseudoPot. # 3 for W  read from file:
     ./pseudo\W.pbe-nsp-van.UPF
     MD5 check sum: d6466f82beb0ca8b88800d998c44bca0
     Pseudo is Ultrasoft + core correction, Zval = 14.0
     Generated by new atomic code, or converted to UPF format
     Using radial grid of  923 points,  6 beta functions with:
                l(1) =   0
                l(2) =   0
                l(3) =   1
                l(4) =   1
                l(5) =   2
                l(6) =   2
     Q(r) pseudized with  6 coefficients,  rinner =    1.000   1.000   1.000
                                                       1.000   1.000

     atomic species   valence    mass     pseudopotential
        Sn            14.00   118.71000     Sn( 1.00)
        Se             6.00    78.96000     Se( 1.00)
        W             14.00   183.84000     W ( 1.00)

     Starting magnetic structure
     atomic species   magnetization
        Sn           0.000
        Se           0.000
        W            0.200

     12 Sym. Ops. (no inversion) found ( 6 have fractional translation)

   Cartesian axes

     site n.     atom                  positions (alat units)
         1           Sn  tau(   1) = (  -0.0000006   0.5773501   3.1431600  )
         2           Se  tau(   2) = (   0.5000003   0.2886747   2.6531705  )
         3           Se  tau(   3) = (  -0.0000006   0.5773501   1.5377093  )
         4           Se  tau(   4) = (   0.5000003   0.2886747   3.6331491  )
         5           Se  tau(   5) = (  -0.0000006   0.5773501   0.5577306  )
         6           W   tau(   6) = (   0.5000003   0.2886747   1.0477201  )

     number of k points=     1  gaussian smearing, width (Ry)=  0.0100
                       cart. coord. in units 2pi/alat
        k(    1) = (   0.0000000   0.0000000   0.0000000), wk =   1.0000000

     Initial potential from superposition of free atoms

     starting charge   51.99782, renormalised to   52.00000
     Starting wfcs are   38 randomized atomic wfcs

     Self-consistent Calculation

     iteration #  1     ecut=    47.07 Ry     beta= 0.40
     Davidson diagonalization with overlap
     ethr =  1.00E-02,  avg # of iterations =  2.5

     total energy              =    -402.25776256 Ry
     Harris-Foulkes estimate   =    -403.33391194 Ry
     estimated scf accuracy    <       2.19105197 Ry

     total magnetization       =     0.00 Bohr mag/cell
     absolute magnetization    =     0.76 Bohr mag/cell

[...]

     total energy              =    -402.98159749 Ry
     Harris-Foulkes estimate   =    -402.98159861 Ry
     estimated scf accuracy    <       0.00000609 Ry

[...]

     iteration # 19     ecut=    47.07 Ry     beta= 0.40
     Davidson diagonalization with overlap
     ethr =  1.17E-08,  avg # of iterations =  2.0

     Magnetic moment per site:
     atom:    1    charge:   10.8631    magn:   -0.0000    constr:    0.0000
     atom:    2    charge:    4.0369    magn:    0.0000    constr:    0.0000
     atom:    3    charge:    3.6527    magn:    0.0003    constr:    0.0000
     atom:    4    charge:    4.0369    magn:    0.0000    constr:    0.0000
     atom:    5    charge:    3.6527    magn:    0.0003    constr:    0.0000
     atom:    6    charge:   10.8844    magn:   -0.0006    constr:    0.0000

     End of self-consistent calculation

 ------ SPIN UP ------------

          k = 0.0000 0.0000 0.0000 (  4411 PWs)   bands (ev):

   -60.8578 -25.3937 -25.2481 -25.2481 -12.1610 -12.1610 -12.1278 -11.9523
   -11.9523  -5.7417  -5.2263  -3.7291  -2.5427   3.7559   4.5057   7.7146
     8.3368   8.3368   9.4589   9.4590   9.5135  11.0431  12.1588  12.1588
    13.5920  13.5920  14.1226  14.1226  14.4319  14.4472  14.4472

 ------ SPIN DOWN ----------

          k = 0.0000 0.0000 0.0000 (  4411 PWs)   bands (ev):

   -60.8586 -25.3947 -25.2491 -25.2491 -12.1610 -12.1610 -12.1278 -11.9523
   -11.9523  -5.7417  -5.2258  -3.7284  -2.5427   3.7559   4.5057   7.7148
     8.3367   8.3367   9.4589   9.4590   9.5136  11.0427  12.1588  12.1588
    13.5920  13.5921  14.1222  14.1223  14.4318  14.4473  14.4473

     the Fermi energy is    13.8572 ev

!    total energy              =    -402.98159819 Ry
     Harris-Foulkes estimate   =    -402.98159840 Ry
     estimated scf accuracy    <       0.00000024 Ry

     The total energy is the sum of the following terms:

     one-electron contribution =    -215.28626514 Ry
     hartree contribution      =     138.50192906 Ry
     xc contribution           =    -117.15785226 Ry
     ewald contribution        =    -209.03890463 Ry
     smearing contrib. (-TS)   =      -0.00050522 Ry

     total magnetization       =    -0.00 Bohr mag/cell
     absolute magnetization    =     0.00 Bohr mag/cell

     convergence has been achieved in  19 iterations

     Writing output data file wse_exc1.save\

     General routines

     Parallel routines

   This run was terminated on:  13:18:18   8Jun2021

   JOB DONE.