     Program PWSCF v.6.4.1 starts on 14May2021 at  8:40:56

     Waiting for input...
     Reading input from standard input

     Current dimensions of program PWSCF are:
     Max number of different atomic species (ntypx) = 10
     Max number of k-points (npk) =  40000
     Max angular momentum in pseudopotentials (lmaxx) =  3
     Message from routine read_upf::
     Pseudo file Sn.pbe-dn-rrkjus_psl.1.0.0.UPF has been fixed on the fly.
To avoid this message in the future, permanently fix
 your pseudo files following these instructions:
     Message from routine read_upf::
     Pseudo file Se.pbe-n-rrkjus_psl.1.0.0.UPF has been fixed on the fly.
To avoid this message in the future, permanently fix
 your pseudo files following these instructions:
               file Sn.pbe-dn-rrkjus_psl.1.0.0.UPF: wavefunction(s)  5S 4D renormalized

     Subspace diagonalization in iterative solution of the eigenvalue problem:
     a serial algorithm will be used

     Found symmetry operation: I + ( -0.0000  0.5000  0.0000)
     This is a supercell, fractional translations are disabled

     bravais-lattice index     =            4
     lattice parameter (alat)  =      12.0649  a.u.
     unit-cell volume          =    3186.9792 (a.u.)^3
     number of atoms/cell      =           24
     number of atomic types    =            3
     number of electrons       =       208.00
     number of Kohn-Sham states=          125
     kinetic-energy cutoff     =      47.0743  Ry
     charge density cutoff     =     423.6680  Ry
     convergence threshold     =      1.0E-06
     mixing beta               =       0.4000
     number of iterations used =            8  plain     mixing
     Exchange-correlation      =  SLA  PW   PBE  PBE ( 1  4  3  4 0 0)

     celldm(1)=  12.064919  celldm(2)=   0.000000  celldm(3)=   2.095441
     celldm(4)=   0.000000  celldm(5)=   0.000000  celldm(6)=   0.000000

     crystal axes: (cart. coord. in units of alat)
               a(1) = (   1.000000   0.000000   0.000000 )
               a(2) = (  -0.500000   0.866025   0.000000 )
               a(3) = (   0.000000   0.000000   2.095441 )

     reciprocal axes: (cart. coord. in units 2 pi/alat)
               b(1) = (  1.000000  0.577350 -0.000000 )
               b(2) = (  0.000000  1.154701  0.000000 )
               b(3) = (  0.000000 -0.000000  0.477227 )

     PseudoPot. # 1 for Sn read from file:
     ./pseudo\Sn.pbe-dn-rrkjus_psl.1.0.0.UPF
     MD5 check sum: 6923576d35b7bb477f9d834f190d2db6
     Pseudo is Ultrasoft + core correction, Zval = 14.0
     Generated using "atomic" code by A. Dal Corso v.5.1.2
     Using radial grid of 1243 points,  6 beta functions with:
                l(1) =   0
                l(2) =   0
                l(3) =   1
                l(4) =   1
                l(5) =   2
                l(6) =   2
     Q(r) pseudized with 0 coefficients

     PseudoPot. # 2 for Se read from file:
     ./pseudo\Se.pbe-n-rrkjus_psl.1.0.0.UPF
     MD5 check sum: b4fde84b927950421ac83de11f467c93
     Pseudo is Ultrasoft + core correction, Zval =  6.0
     Generated using "atomic" code by A. Dal Corso v.5.1.2
     Using radial grid of 1211 points,  4 beta functions with:
                l(1) =   0
                l(2) =   0
                l(3) =   1
                l(4) =   1
     Q(r) pseudized with 0 coefficients

     PseudoPot. # 3 for W  read from file:
     ./pseudo\W.pbe-nsp-van.UPF
     MD5 check sum: d6466f82beb0ca8b88800d998c44bca0
     Pseudo is Ultrasoft + core correction, Zval = 14.0
     Generated by new atomic code, or converted to UPF format
     Using radial grid of  923 points,  6 beta functions with:
                l(1) =   0
                l(2) =   0
                l(3) =   1
                l(4) =   1
                l(5) =   2
                l(6) =   2
     Q(r) pseudized with  6 coefficients,  rinner =    1.000   1.000   1.000
                                                       1.000   1.000

     atomic species   valence    mass     pseudopotential
        Sn            14.00   118.71000     Sn( 1.00)
        Se             6.00    78.96000     Se( 1.00)
        W             14.00   183.84000     W ( 1.00)

     Starting magnetic structure
     atomic species   magnetization
        Sn           0.000
        Se           0.000
        W            0.200

      6 Sym. Ops. (no inversion) found

   Cartesian axes

     site n.     atom                  positions (alat units)
         1           Sn  tau(   1) = (  -0.0000005   0.2886747   1.5715800  )
         2           Sn  tau(   2) = (  -0.2500003   0.7216871   1.5715800  )
         3           Sn  tau(   3) = (   0.4999992   0.2886747   1.5715800  )
         4           Sn  tau(   4) = (   0.2499994   0.7216871   1.5715800  )
         5           Se  tau(   5) = (   0.2499998   0.1443369   1.3265853  )
         6           Se  tau(   6) = (   0.0000000   0.5773493   1.3265853  )
         7           Se  tau(   7) = (   0.7499995   0.1443369   1.3265853  )
         8           Se  tau(   8) = (   0.4999997   0.5773493   1.3265853  )
         9           Se  tau(   9) = (  -0.0000005   0.2886747   0.7688546  )
        10           Se  tau(  10) = (  -0.2500003   0.7216871   0.7688546  )
        11           Se  tau(  11) = (   0.4999992   0.2886747   0.7688546  )
        12           Se  tau(  12) = (   0.2499994   0.7216871   0.7688546  )
        13           Se  tau(  13) = (   0.2499998   0.1443369   1.8165746  )
        14           Se  tau(  14) = (   0.0000000   0.5773493   1.8165746  )
        15           Se  tau(  15) = (   0.7499995   0.1443369   1.8165746  )
        16           Se  tau(  16) = (   0.4999997   0.5773493   1.8165746  )
        17           Se  tau(  17) = (  -0.0000005   0.2886747   0.2788653  )
        18           Se  tau(  18) = (  -0.2500003   0.7216871   0.2788653  )
        19           Se  tau(  19) = (   0.4999992   0.2886747   0.2788653  )
        20           Se  tau(  20) = (   0.2499994   0.7216871   0.2788653  )
        21           W   tau(  21) = (   0.2499998   0.1443369   0.5238600  )
        22           W   tau(  22) = (   0.0000000   0.5773493   0.5238600  )
        23           W   tau(  23) = (   0.7499995   0.1443369   0.5238600  )
        24           W   tau(  24) = (   0.4999997   0.5773493   0.5238600  )

     number of k points=     2  gaussian smearing, width (Ry)=  0.0100
                       cart. coord. in units 2pi/alat
        k(    1) = (   0.0000000   0.0000000   0.0000000), wk =   0.2500000
        k(    2) = (   0.0000000  -0.5773503   0.0000000), wk =   0.7500000

     Initial potential from superposition of free atoms

     starting charge  207.99129, renormalised to  208.00000
     Starting wfcs are  152 randomized atomic wfcs

     Self-consistent Calculation

     iteration #  1     ecut=    47.07 Ry     beta= 0.40
     Davidson diagonalization with overlap
     ethr =  1.00E-02,  avg # of iterations =  2.8

     Threshold (ethr) on eigenvalues was too large:
     Diagonalizing with lowered threshold

     Davidson diagonalization with overlap
     ethr =  4.69E-04,  avg # of iterations =  1.5

     total energy              =   -1620.99337705 Ry
     Harris-Foulkes estimate   =   -1621.16371648 Ry
     estimated scf accuracy    <       0.98140517 Ry

     total magnetization       =     0.04 Bohr mag/cell
     absolute magnetization    =     2.27 Bohr mag/cell

[...]

     total energy              =   -1621.21679326 Ry
     Harris-Foulkes estimate   =   -1621.21678755 Ry
     estimated scf accuracy    <       0.00000209 Ry

[...]

     iteration # 12     ecut=    47.07 Ry     beta= 0.40
     Davidson diagonalization with overlap
     ethr =  1.00E-09,  avg # of iterations =  4.8

     Magnetic moment per site:
     atom:    1    charge:   10.9440    magn:    0.0000    constr:    0.0000
     atom:    2    charge:   10.9440    magn:    0.0000    constr:    0.0000
     atom:    3    charge:   10.9440    magn:    0.0000    constr:    0.0000
     atom:    4    charge:   10.9440    magn:    0.0000    constr:    0.0000
     atom:    5    charge:    3.7206    magn:    0.0000    constr:    0.0000
     atom:    6    charge:    3.7206    magn:    0.0000    constr:    0.0000
     atom:    7    charge:    3.7206    magn:    0.0000    constr:    0.0000
     atom:    8    charge:    3.7206    magn:    0.0000    constr:    0.0000
     atom:    9    charge:    3.6581    magn:   -0.0003    constr:    0.0000
     atom:   10    charge:    3.6581    magn:   -0.0003    constr:    0.0000
     atom:   11    charge:    3.6582    magn:   -0.0003    constr:    0.0000
     atom:   12    charge:    3.6581    magn:   -0.0003    constr:    0.0000
     atom:   13    charge:    3.7205    magn:    0.0000    constr:    0.0000
     atom:   14    charge:    3.7206    magn:    0.0000    constr:    0.0000
     atom:   15    charge:    3.7205    magn:    0.0000    constr:    0.0000
     atom:   16    charge:    3.7205    magn:    0.0000    constr:    0.0000
     atom:   17    charge:    3.6582    magn:   -0.0003    constr:    0.0000
     atom:   18    charge:    3.6582    magn:   -0.0003    constr:    0.0000
     atom:   19    charge:    3.6583    magn:   -0.0003    constr:    0.0000
     atom:   20    charge:    3.6582    magn:   -0.0003    constr:    0.0000
     atom:   21    charge:   10.5891    magn:    0.0007    constr:    0.0000
     atom:   22    charge:   10.5890    magn:    0.0007    constr:    0.0000
     atom:   23    charge:   10.5891    magn:    0.0007    constr:    0.0000
     atom:   24    charge:   10.5891    magn:    0.0007    constr:    0.0000

     End of self-consistent calculation

 ------ SPIN UP ------------

          k = 0.0000 0.0000 0.0000 ( 17401 PWs)   bands (ev):

   -62.5967 -62.5795 -62.5795 -62.5794 -27.1635 -27.1634 -27.1634 -27.0016
   -26.9279 -26.9278 -26.9278 -26.8930 -26.8930 -26.8930 -26.8113 -26.8112
   -11.4919 -11.4919 -11.4919 -11.4549 -11.4549 -11.4548 -11.3276 -11.3276
   -11.2466 -11.1917 -11.1917 -11.1917 -11.1369 -11.1368 -11.0494 -11.0494
   -11.0493 -11.0399 -11.0399 -11.0399  -6.5433  -4.5177  -4.0721  -3.3066
    -3.3065  -3.3064  -2.7064  -2.0992  -2.0990  -2.0989  -1.8142  -1.8140
    -1.8139  -1.2767  -1.2765  -1.2765   1.1165   1.1166   1.1167   3.0644
     4.0683   4.0684   4.0685   4.3636   4.3636   4.3637   4.3726   5.5208
     5.5209   5.5210   5.7568   5.7569   5.7570   6.4516   6.4517   6.4518
     7.2861   7.6115   7.6116   7.6116   8.0262   8.0262   8.0262   8.1900
     8.1900   8.9859   8.9860   8.9860   9.4469   9.6157   9.6157   9.9761
     9.9762   9.9762  10.1241  10.1241  10.1242  10.1599  10.1600  10.1601
    10.5609  10.5609  10.5610  10.8568  10.9625  10.9625  11.2655  11.2656
    11.2657  12.0123  12.0124  13.3538  13.3538  13.3539  13.8615  13.8615
    13.8615  13.8948  14.3324  14.3324  14.3325  14.5103  14.5104  14.9642
    14.9642  15.3602  15.3602  15.3602  15.3967

[...]

 ------ SPIN DOWN ----------

[...]

          k = 0.0000-0.5774 0.0000 ( 17400 PWs)   bands (ev):

   -62.5878 -62.5878 -62.5791 -62.5791 -27.0987 -27.0987 -26.9895 -26.9894
   -26.9635 -26.9635 -26.9586 -26.9586 -26.9265 -26.9265 -26.8515 -26.8515
   -11.4086 -11.4085 -11.4085 -11.4084 -11.3755 -11.3754 -11.3053 -11.3053
   -11.2396 -11.2396 -11.1861 -11.1861 -11.1681 -11.1680 -11.1643 -11.1643
   -11.1460 -11.1460 -11.0464 -11.0464  -5.4026  -5.4025  -3.4886  -3.4884
    -3.4786  -3.4785  -2.9651  -2.9649  -2.3063  -2.3061  -2.1426  -2.1424
    -1.7920  -1.7918  -1.3667  -1.3666   2.3817   2.3818   3.6538   3.6539
     4.9264   4.9265   5.0689   5.0690   5.2091   5.2092   5.4222   5.4223
     5.4755   5.4756   6.0209   6.0210   6.0341   6.0341   6.4121   6.4123
     6.7904   6.7906   6.9337   6.9337   7.3319   7.3320   7.5385   7.5386
     7.5968   7.5968   8.1249   8.1249   8.4205   8.4206   8.6506   8.6506
     9.1506   9.1507   9.1986   9.1987   9.2700   9.2701   9.8940   9.8940
    10.1077  10.1077  10.1670  10.1671  10.4577  10.4577  11.1899  11.1900
    12.5502  12.5503  13.3205  13.3205  13.5698  13.5698  13.9797  13.9798
    13.9938  13.9939  14.2372  14.2372  14.3169  14.3169  14.5081  14.5081
    14.5116  14.5116  14.7722  14.7722  15.8317

     the Fermi energy is    11.3410 ev

!    total energy              =   -1621.21679560 Ry
     Harris-Foulkes estimate   =   -1621.21679492 Ry
     estimated scf accuracy    <       0.00000039 Ry

     The total energy is the sum of the following terms:

     one-electron contribution =    -867.43137787 Ry
     hartree contribution      =     548.74916933 Ry
     xc contribution           =    -466.37338635 Ry
     ewald contribution        =    -836.15561854 Ry
     smearing contrib. (-TS)   =      -0.00558218 Ry

     total magnetization       =     0.00 Bohr mag/cell
     absolute magnetization    =     0.01 Bohr mag/cell

     convergence has been achieved in  12 iterations

     Writing output data file Si_exc1.save\

     General routines

     Parallel routines

   This run was terminated on:   8:44:45  14May2021

   JOB DONE.