     Program PWSCF v.6.4.1 starts on 14May2021 at  8:22:56

     Waiting for input...
     Reading input from standard input

     Current dimensions of program PWSCF are:
     Max number of different atomic species (ntypx) = 10
     Max number of k-points (npk) =  40000
     Max angular momentum in pseudopotentials (lmaxx) =  3
     Message from routine read_upf::
     Pseudo file Se.pbe-n-rrkjus_psl.1.0.0.UPF has been fixed on the fly.
To avoid this message in the future, permanently fix
 your pseudo files following these instructions:

     Subspace diagonalization in iterative solution of the eigenvalue problem:
     a serial algorithm will be used

     bravais-lattice index     =            4
     lattice parameter (alat)  =       6.2873  a.u.
     unit-cell volume          =    1621.7658 (a.u.)^3
     number of atoms/cell      =            6
     number of atomic types    =            2
     number of electrons       =        52.00
     number of Kohn-Sham states=           31
     kinetic-energy cutoff     =      25.0000  Ry
     charge density cutoff     =     225.0000  Ry
     convergence threshold     =      1.0E-06
     mixing beta               =       0.4000
     number of iterations used =            8  plain     mixing
     Exchange-correlation      = PBE ( 1  4  3  4 0 0)

     celldm(1)=   6.287251  celldm(2)=   0.000000  celldm(3)=   7.534858
     celldm(4)=   0.000000  celldm(5)=   0.000000  celldm(6)=   0.000000

     crystal axes: (cart. coord. in units of alat)
               a(1) = (   1.000000   0.000000   0.000000 )
               a(2) = (  -0.500000   0.866025   0.000000 )
               a(3) = (   0.000000   0.000000   7.534858 )

     reciprocal axes: (cart. coord. in units 2 pi/alat)
               b(1) = (  1.000000  0.577350 -0.000000 )
               b(2) = (  0.000000  1.154701  0.000000 )
               b(3) = (  0.000000 -0.000000  0.132717 )

     PseudoPot. # 1 for W  read from file:
     ./pseudo\W.pbe-nsp-van.UPF
     MD5 check sum: d6466f82beb0ca8b88800d998c44bca0
     Pseudo is Ultrasoft + core correction, Zval = 14.0
     Generated by new atomic code, or converted to UPF format
     Using radial grid of  923 points,  6 beta functions with:
                l(1) =   0
                l(2) =   0
                l(3) =   1
                l(4) =   1
                l(5) =   2
                l(6) =   2
     Q(r) pseudized with  6 coefficients,  rinner =    1.000   1.000   1.000
                                                       1.000   1.000

     PseudoPot. # 2 for Se read from file:
     ./pseudo\Se.pbe-n-rrkjus_psl.1.0.0.UPF
     MD5 check sum: b4fde84b927950421ac83de11f467c93
     Pseudo is Ultrasoft + core correction, Zval =  6.0
     Generated using "atomic" code by A. Dal Corso v.5.1.2
     Using radial grid of 1211 points,  4 beta functions with:
                l(1) =   0
                l(2) =   0
                l(3) =   1
                l(4) =   1
     Q(r) pseudized with 0 coefficients

     atomic species   valence    mass     pseudopotential
        W             14.00   183.84000     W ( 1.00)
        Se             6.00    78.96000     Se( 1.00)

     Starting magnetic structure
     atomic species   magnetization
        W            0.200
        Se           0.000

     12 Sym. Ops., with inversion, found

   Cartesian axes

     site n.     atom                  positions (alat units)
         1           W   tau(   1) = (   0.5000000   0.2886750   1.1322987  )
         2           W   tau(   2) = (  -0.0000000   0.5773500   6.4025446  )
         3           Se  tau(   3) = (  -0.0000000   0.5773500   1.6376154  )
         4           Se  tau(   4) = (   0.5000000   0.2886750   6.9078616  )
         5           Se  tau(   5) = (  -0.0000000   0.5773500   0.6269817  )
         6           Se  tau(   6) = (   0.5000000   0.2886750   5.8972279  )

     number of k points=     4  gaussian smearing, width (Ry)=  0.0100
                       cart. coord. in units 2pi/alat
        k(    1) = (   0.0000000   0.0000000   0.0000000), wk =   0.0625000
        k(    2) = (   0.0000000   0.2886751   0.0000000), wk =   0.3750000
        k(    3) = (   0.0000000  -0.5773503   0.0000000), wk =   0.1875000
        k(    4) = (   0.2500000   0.4330127   0.0000000), wk =   0.3750000

     Check: negative core charge=   -0.000001

     Initial potential from superposition of free atoms

     starting charge   51.99872, renormalised to   52.00000

     negative rho (up, down):  4.916E-03 5.074E-03
     Starting wfcs are   42 randomized atomic wfcs

     Self-consistent Calculation

     iteration #  1     ecut=    25.00 Ry     beta= 0.40
     Davidson diagonalization with overlap
     ethr =  1.00E-02,  avg # of iterations =  2.1

     Threshold (ethr) on eigenvalues was too large:
     Diagonalizing with lowered threshold

     Davidson diagonalization with overlap
     ethr =  4.65E-04,  avg # of iterations =  1.6

     negative rho (up, down):  5.058E-03 4.167E-03

     total energy              =    -401.93760179 Ry
     Harris-Foulkes estimate   =    -401.91378541 Ry
     estimated scf accuracy    <       0.24622731 Ry

     total magnetization       =     0.00 Bohr mag/cell
     absolute magnetization    =     1.33 Bohr mag/cell

[...]

     total energy              =    -402.01035148 Ry
     Harris-Foulkes estimate   =    -402.01033149 Ry
     estimated scf accuracy    <       0.00000697 Ry

[...]

     iteration #  9     ecut=    25.00 Ry     beta= 0.40
     Davidson diagonalization with overlap
     ethr =  1.34E-08,  avg # of iterations =  3.8

     negative rho (up, down):  5.095E-03 0.000E+00

     Magnetic moment per site:
     atom:    1    charge:   10.8254    magn:    0.0015    constr:    0.0000
     atom:    2    charge:   10.8254    magn:    0.0015    constr:    0.0000
     atom:    3    charge:    3.9214    magn:   -0.0008    constr:    0.0000
     atom:    4    charge:    3.9212    magn:   -0.0008    constr:    0.0000
     atom:    5    charge:    3.9212    magn:   -0.0008    constr:    0.0000
     atom:    6    charge:    3.9214    magn:   -0.0008    constr:    0.0000

     End of self-consistent calculation

 ------ SPIN UP ------------

          k = 0.0000 0.0000 0.0000 (  3303 PWs)   bands (ev):

   -71.0892 -71.0844 -35.3169 -35.3121 -35.2163 -35.2163 -35.2115 -35.2115
   -11.7041 -11.6880 -10.4802 -10.4523  -3.2171  -3.0867   0.5983   0.6581
     0.6581   0.6630   0.6630   1.0286   1.7484   1.7484   1.7540   1.7540
     2.5655   2.8173   5.8514   5.8514   5.8570   5.8570   5.9994

[...]

 ------ SPIN DOWN ----------

[...]

          k = 0.2500 0.4330 0.0000 (  3441 PWs)   bands (ev):

   -71.0803 -71.0755 -35.3814 -35.3766 -35.3025 -35.2977 -35.2765 -35.2717
    -9.8371  -9.8276  -9.5655  -9.5553  -2.4429  -2.4343  -1.8715  -1.8582
    -1.0760  -1.0339  -0.4452  -0.3734  -0.1718  -0.1470   1.0409   1.0501
     2.4833   2.4970   4.9429   5.0877   5.6705   5.7129   5.8186

     the Fermi energy is     3.7306 ev

!    total energy              =    -402.01036433 Ry
     Harris-Foulkes estimate   =    -402.01036297 Ry
     estimated scf accuracy    <       0.00000063 Ry

     The total energy is the sum of the following terms:

     one-electron contribution =   -1834.57910105 Ry
     hartree contribution      =     922.85810276 Ry
     xc contribution           =    -108.57788794 Ry
     ewald contribution        =     618.28852190 Ry
     smearing contrib. (-TS)   =      -0.00000000 Ry

     total magnetization       =    -0.00 Bohr mag/cell
     absolute magnetization    =     0.01 Bohr mag/cell

     convergence has been achieved in   9 iterations

     Writing output data file Si_exc1.save\

     General routines

     Parallel routines

   This run was terminated on:   8:23:17  14May2021

   JOB DONE.