     Program PWSCF v.6.1 starts on  8Jun2021 at  9:54:28

     Current dimensions of program PWSCF are:
     Max number of different atomic species (ntypx) = 10
     Max number of k-points (npk) =  40000
     Max angular momentum in pseudopotentials (lmaxx) =  3
               file Sn.pbe-dn-rrkjus_psl.1.0.0.UPF: wavefunction(s)  5S 4D renormalized

     Subspace diagonalization in iterative solution of the eigenvalue problem:
     a serial algorithm will be used

     Title:
     kpoint_3_3_3(SCF)

     bravais-lattice index     =            4
     lattice parameter (alat)  =       6.0325  a.u.
     unit-cell volume          =     796.7448 (a.u.)^3
     number of atoms/cell      =            6
     number of atomic types    =            3
     number of electrons       =        52.00
     number of Kohn-Sham states=           31
     kinetic-energy cutoff     =      47.0743  Ry
     charge density cutoff     =     423.6680  Ry
     convergence threshold     =      1.0E-06
     mixing beta               =       0.4000
     number of iterations used =            8  plain     mixing
     Exchange-correlation      =  SLA  PW   PBE  PBE ( 1  4  3  4 0 0)

     celldm(1)=   6.032459  celldm(2)=   0.000000  celldm(3)=   4.190882
     celldm(4)=   0.000000  celldm(5)=   0.000000  celldm(6)=   0.000000

     crystal axes: (cart. coord. in units of alat)
               a(1) = (   1.000000   0.000000   0.000000 )
               a(2) = (  -0.500000   0.866025   0.000000 )
               a(3) = (   0.000000   0.000000   4.190882 )

     reciprocal axes: (cart. coord. in units 2 pi/alat)
               b(1) = (  1.000000  0.577350 -0.000000 )
               b(2) = (  0.000000  1.154701  0.000000 )
               b(3) = (  0.000000 -0.000000  0.238613 )

     PseudoPot. # 1 for Sn read from file:
     C:\Users\ROG\.burai\.pseudopot/Sn.pbe-dn-rrkjus_psl.1.0.0.UPF
     MD5 check sum: 9f7ad82915168e737b3f6a04b7e1f5ac
     Pseudo is Ultrasoft + core correction, Zval = 14.0
     Generated using "atomic" code by A. Dal Corso  v.5.1.2
     Using radial grid of 1243 points,  6 beta functions with:
                l(1) =   0
                l(2) =   0
                l(3) =   1
                l(4) =   1
                l(5) =   2
                l(6) =   2
     Q(r) pseudized with 0 coefficients

     PseudoPot. # 2 for Se read from file:
     C:\Users\ROG\.burai\.pseudopot/Se.pbe-n-rrkjus_psl.1.0.0.UPF
     MD5 check sum: 5f5e5c15c95449acb3b45b44a6529d2d
     Pseudo is Ultrasoft + core correction, Zval =  6.0
     Generated using "atomic" code by A. Dal Corso  v.5.1.2
     Using radial grid of 1211 points,  4 beta functions with:
                l(1) =   0
                l(2) =   0
                l(3) =   1
                l(4) =   1
     Q(r) pseudized with 0 coefficients

     PseudoPot. # 3 for W  read from file:
     C:\Users\ROG\.burai\.pseudopot/W.pbe-nsp-van.UPF
     MD5 check sum: bb4869ded537247882558ca8e5af5f09
     Pseudo is Ultrasoft + core correction, Zval = 14.0
     Generated by new atomic code, or converted to UPF format
     Using radial grid of  923 points,  6 beta functions with:
                l(1) =   0
                l(2) =   0
                l(3) =   1
                l(4) =   1
                l(5) =   2
                l(6) =   2
     Q(r) pseudized with  6 coefficients,  rinner =    1.000   1.000   1.000
                                                       1.000   1.000

     atomic species   valence    mass     pseudopotential
        Sn            14.00   118.71000     Sn( 1.00)
        Se             6.00    78.96000     Se( 1.00)
        W             14.00   183.84000     W ( 1.00)

     Starting magnetic structure
     atomic species   magnetization
        Sn           0.000
        Se           0.000
        W            0.200

     12 Sym. Ops. (no inversion) found ( 6 have fractional translation)

   Cartesian axes

     site n.     atom                  positions (alat units)
         1           Sn  tau(   1) = (  -0.0000006   0.5773501   3.1431600  )
         2           Se  tau(   2) = (   0.5000003   0.2886747   2.6531705  )
         3           Se  tau(   3) = (  -0.0000006   0.5773501   1.5377093  )
         4           Se  tau(   4) = (   0.5000003   0.2886747   3.6331491  )
         5           Se  tau(   5) = (  -0.0000006   0.5773501   0.5577306  )
         6           W   tau(   6) = (   0.5000003   0.2886747   1.0477201  )

     number of k points=     6  gaussian smearing, width (Ry)=  0.0100
                       cart. coord. in units 2pi/alat
        k(    1) = (   0.0000000   0.0000000   0.0000000), wk =   0.0370370
        k(    2) = (   0.0000000   0.0000000   0.0795378), wk =   0.0740741
        k(    3) = (   0.0000000   0.3849002   0.0000000), wk =   0.2222222
        k(    4) = (   0.0000000   0.3849002   0.0795378), wk =   0.4444444
        k(    5) = (   0.3333333   0.5773503   0.0000000), wk =   0.0740741
        k(    6) = (   0.3333333   0.5773503   0.0795378), wk =   0.1481481

     Initial potential from superposition of free atoms

     starting charge   51.99782, renormalised to   52.00000
     Starting wfc are   38 randomized atomic wfcs

     Self-consistent Calculation

     iteration #  1     ecut=    47.07 Ry     beta=0.40
     Davidson diagonalization with overlap
     ethr =  1.00E-02,  avg # of iterations =  2.4

     Threshold (ethr) on eigenvalues was too large:
     Diagonalizing with lowered threshold

     Davidson diagonalization with overlap
     ethr =  8.96E-04,  avg # of iterations =  1.0

     total energy              =    -405.06069730 Ry
     Harris-Foulkes estimate   =    -405.24719342 Ry
     estimated scf accuracy    <       0.46749580 Ry

     total magnetization       =     0.22 Bohr mag/cell
     absolute magnetization    =     0.79 Bohr mag/cell

[...]

     total energy              =    -405.23233542 Ry
     Harris-Foulkes estimate   =    -405.23234174 Ry
     estimated scf accuracy    <       0.00001580 Ry

[...]

     iteration # 12     ecut=    47.07 Ry     beta=0.40
     Davidson diagonalization with overlap
     ethr =  3.04E-08,  avg # of iterations =  2.1

     Magnetic moment per site:
     atom:    1    charge:   10.9121    magn:   -0.0000    constr:    0.0000
     atom:    2    charge:    3.7754    magn:    0.0000    constr:    0.0000
     atom:    3    charge:    3.6537    magn:    0.0002    constr:    0.0000
     atom:    4    charge:    3.7754    magn:    0.0000    constr:    0.0000
     atom:    5    charge:    3.6537    magn:    0.0002    constr:    0.0000
     atom:    6    charge:   10.6041    magn:   -0.0006    constr:    0.0000

     End of self-consistent calculation

 ------ SPIN UP ------------

          k = 0.0000 0.0000 0.0000 (  4411 PWs)   bands (ev):

   -62.5188 -27.0129 -26.7039 -26.7039 -11.4186 -11.4186 -11.3218 -11.2058
   -11.2058  -6.3564  -4.5885  -3.8249  -2.8009   3.1758   4.3484   7.3742
     8.2116   8.2116   9.4247   9.5757   9.5757  10.8058  11.1897  11.1897
    12.2700  12.2700  14.0356  14.4522  14.4523  14.9127  14.9127

[...]

 ------ SPIN DOWN ----------

[...]

          k = 0.3333 0.5774 0.0795 (  4338 PWs)   bands (ev):

   -62.4992 -26.9752 -26.9304 -26.9273 -11.4680 -11.4090 -11.3455 -11.2658
   -11.1341  -2.4088  -1.7953  -1.6983  -0.5421   1.9851   3.8899   4.8596
     5.1975   5.2867   6.1481   6.6160   7.0129   7.2058   7.5736   8.6989
    10.6869  11.0875  12.7343  12.7716  12.8363  14.3878  15.3259

     the Fermi energy is    12.4999 ev

!    total energy              =    -405.23233772 Ry
     Harris-Foulkes estimate   =    -405.23233802 Ry
     estimated scf accuracy    <       0.00000058 Ry

     The total energy is the sum of the following terms:

     one-electron contribution =    -216.86133664 Ry
     hartree contribution      =     137.32283124 Ry
     xc contribution           =    -116.65477759 Ry
     ewald contribution        =    -209.03890463 Ry
     smearing contrib. (-TS)   =      -0.00015009 Ry

     total magnetization       =    -0.00 Bohr mag/cell
     absolute magnetization    =     0.00 Bohr mag/cell

     convergence has been achieved in  12 iterations

     Writing output data file espresso.save

     General routines

     Parallel routines

   This run was terminated on:   9:55:20   8Jun2021

   JOB DONE.