     Program PWSCF v.6.4.1 starts on 14May2021 at 15:38:19

     Waiting for input...
     Reading input from standard input

     Current dimensions of program PWSCF are:
     Max number of different atomic species (ntypx) = 10
     Max number of k-points (npk) =  40000
     Max angular momentum in pseudopotentials (lmaxx) =  3
     Message from routine read_upf::
     Pseudo file Sn.pbe-dn-rrkjus_psl.1.0.0.UPF has been fixed on the fly.
To avoid this message in the future, permanently fix
 your pseudo files following these instructions:
     Message from routine read_upf::
     Pseudo file Se.pbe-n-rrkjus_psl.1.0.0.UPF has been fixed on the fly.
To avoid this message in the future, permanently fix
 your pseudo files following these instructions:
               file Sn.pbe-dn-rrkjus_psl.1.0.0.UPF: wavefunction(s)  5S 4D renormalized

     gamma-point specific algorithms are used

     Subspace diagonalization in iterative solution of the eigenvalue problem:
     a serial algorithm will be used

     Found symmetry operation: I + ( -0.0000  0.3333  0.0000)
     This is a supercell, fractional translations are disabled

     bravais-lattice index     =            4
     lattice parameter (alat)  =      18.0974  a.u.
     unit-cell volume          =    7170.7032 (a.u.)^3
     number of atoms/cell      =           54
     number of atomic types    =            3
     number of electrons       =       468.00
     number of Kohn-Sham states=          281
     kinetic-energy cutoff     =      47.0743  Ry
     charge density cutoff     =     423.6680  Ry
     convergence threshold     =      1.0E-06
     mixing beta               =       0.4000
     number of iterations used =            8  plain     mixing
     Exchange-correlation      =  SLA  PW   PBE  PBE ( 1  4  3  4 0 0)

     celldm(1)=  18.097378  celldm(2)=   0.000000  celldm(3)=   1.396961
     celldm(4)=   0.000000  celldm(5)=   0.000000  celldm(6)=   0.000000

     crystal axes: (cart. coord. in units of alat)
               a(1) = (   1.000000   0.000000   0.000000 )
               a(2) = (  -0.500000   0.866025   0.000000 )
               a(3) = (   0.000000   0.000000   1.396961 )

     reciprocal axes: (cart. coord. in units 2 pi/alat)
               b(1) = (  1.000000  0.577350 -0.000000 )
               b(2) = (  0.000000  1.154701  0.000000 )
               b(3) = (  0.000000 -0.000000  0.715840 )

     PseudoPot. # 1 for Sn read from file:
     ./pseudo\Sn.pbe-dn-rrkjus_psl.1.0.0.UPF
     MD5 check sum: 6923576d35b7bb477f9d834f190d2db6
     Pseudo is Ultrasoft + core correction, Zval = 14.0
     Generated using "atomic" code by A. Dal Corso v.5.1.2
     Using radial grid of 1243 points,  6 beta functions with:
                l(1) =   0
                l(2) =   0
                l(3) =   1
                l(4) =   1
                l(5) =   2
                l(6) =   2
     Q(r) pseudized with 0 coefficients

     PseudoPot. # 2 for Se read from file:
     ./pseudo\Se.pbe-n-rrkjus_psl.1.0.0.UPF
     MD5 check sum: b4fde84b927950421ac83de11f467c93
     Pseudo is Ultrasoft + core correction, Zval =  6.0
     Generated using "atomic" code by A. Dal Corso v.5.1.2
     Using radial grid of 1211 points,  4 beta functions with:
                l(1) =   0
                l(2) =   0
                l(3) =   1
                l(4) =   1
     Q(r) pseudized with 0 coefficients

     PseudoPot. # 3 for W  read from file:
     ./pseudo\W.pbe-nsp-van.UPF
     MD5 check sum: d6466f82beb0ca8b88800d998c44bca0
     Pseudo is Ultrasoft + core correction, Zval = 14.0
     Generated by new atomic code, or converted to UPF format
     Using radial grid of  923 points,  6 beta functions with:
                l(1) =   0
                l(2) =   0
                l(3) =   1
                l(4) =   1
                l(5) =   2
                l(6) =   2
     Q(r) pseudized with  6 coefficients,  rinner =    1.000   1.000   1.000
                                                       1.000   1.000

     atomic species   valence    mass     pseudopotential
        Sn            14.00   118.71000     Sn( 1.00)
        Se             6.00    78.96000     Se( 1.00)
        W             14.00   183.84000     W ( 1.00)

      6 Sym. Ops. (no inversion) found

   Cartesian axes

     site n.     atom                  positions (alat units)
         1           Sn  tau(   1) = (   0.0000000   0.1924498   1.0477200  )
         2           Sn  tau(   2) = (  -0.1666666   0.4811247   1.0477200  )
         3           Sn  tau(   3) = (  -0.3333331   0.7697998   1.0477200  )
         4           Sn  tau(   4) = (   0.3333331   0.1924498   1.0477200  )
         5           Sn  tau(   5) = (   0.1666666   0.4811247   1.0477200  )
         6           Sn  tau(   6) = (   0.0000000   0.7697998   1.0477200  )
         7           Sn  tau(   7) = (   0.6666664   0.1924498   1.0477200  )
         8           Sn  tau(   8) = (   0.4999998   0.4811247   1.0477200  )
         9           Sn  tau(   9) = (   0.3333331   0.7697998   1.0477200  )
        10           Se  tau(  10) = (   0.1666665   0.0962249   0.8843902  )
        11           Se  tau(  11) = (  -0.0000002   0.3848998   0.8843902  )
        12           Se  tau(  12) = (  -0.1666668   0.6735749   0.8843902  )
        13           Se  tau(  13) = (   0.4999996   0.0962249   0.8843902  )
        14           Se  tau(  14) = (   0.3333330   0.3848998   0.8843902  )
        15           Se  tau(  15) = (   0.1666665   0.6735749   0.8843902  )
        16           Se  tau(  16) = (   0.8333327   0.0962249   0.8843902  )
        17           Se  tau(  17) = (   0.6666661   0.3848998   0.8843902  )
        18           Se  tau(  18) = (   0.4999996   0.6735749   0.8843902  )
        19           Se  tau(  19) = (   0.0000000   0.1924498   0.5125698  )
        20           Se  tau(  20) = (  -0.1666666   0.4811247   0.5125698  )
        21           Se  tau(  21) = (  -0.3333331   0.7697998   0.5125698  )
        22           Se  tau(  22) = (   0.3333331   0.1924498   0.5125698  )
        23           Se  tau(  23) = (   0.1666666   0.4811247   0.5125698  )
        24           Se  tau(  24) = (   0.0000000   0.7697998   0.5125698  )
        25           Se  tau(  25) = (   0.6666664   0.1924498   0.5125698  )
        26           Se  tau(  26) = (   0.4999998   0.4811247   0.5125698  )
        27           Se  tau(  27) = (   0.3333331   0.7697998   0.5125698  )
        28           Se  tau(  28) = (   0.1666665   0.0962249   1.2110497  )
        29           Se  tau(  29) = (  -0.0000002   0.3848998   1.2110497  )
        30           Se  tau(  30) = (  -0.1666668   0.6735749   1.2110497  )
        31           Se  tau(  31) = (   0.4999996   0.0962249   1.2110497  )
        32           Se  tau(  32) = (   0.3333330   0.3848998   1.2110497  )
        33           Se  tau(  33) = (   0.1666665   0.6735749   1.2110497  )
        34           Se  tau(  34) = (   0.8333327   0.0962249   1.2110497  )
        35           Se  tau(  35) = (   0.6666661   0.3848998   1.2110497  )
        36           Se  tau(  36) = (   0.4999996   0.6735749   1.2110497  )
        37           Se  tau(  37) = (   0.0000000   0.1924498   0.1859102  )
        38           Se  tau(  38) = (  -0.1666666   0.4811247   0.1859102  )
        39           Se  tau(  39) = (  -0.3333331   0.7697998   0.1859102  )
        40           Se  tau(  40) = (   0.3333331   0.1924498   0.1859102  )
        41           Se  tau(  41) = (   0.1666666   0.4811247   0.1859102  )
        42           Se  tau(  42) = (   0.0000000   0.7697998   0.1859102  )
        43           Se  tau(  43) = (   0.6666664   0.1924498   0.1859102  )
        44           Se  tau(  44) = (   0.4999998   0.4811247   0.1859102  )
        45           Se  tau(  45) = (   0.3333331   0.7697998   0.1859102  )
        46           W   tau(  46) = (   0.1666665   0.0962249   0.3492400  )
        47           W   tau(  47) = (  -0.0000002   0.3848998   0.3492400  )
        48           W   tau(  48) = (  -0.1666668   0.6735749   0.3492400  )
        49           W   tau(  49) = (   0.4999996   0.0962249   0.3492400  )
        50           W   tau(  50) = (   0.3333330   0.3848998   0.3492400  )
        51           W   tau(  51) = (   0.1666665   0.6735749   0.3492400  )
        52           W   tau(  52) = (   0.8333327   0.0962249   0.3492400  )
        53           W   tau(  53) = (   0.6666661   0.3848998   0.3492400  )
        54           W   tau(  54) = (   0.4999996   0.6735749   0.3492400  )

     number of k points=     1  gaussian smearing, width (Ry)=  0.0100
                       cart. coord. in units 2pi/alat
        k(    1) = (   0.0000000   0.0000000   0.0000000), wk =   2.0000000

     Initial potential from superposition of free atoms

     starting charge  467.98040, renormalised to  468.00000
     Starting wfcs are  342 randomized atomic wfcs

     Self-consistent Calculation

     iteration #  1     ecut=    47.07 Ry     beta= 0.40
     Davidson diagonalization with overlap
     ethr =  1.00E-02,  avg # of iterations =  3.0

     Threshold (ethr) on eigenvalues was too large:
     Diagonalizing with lowered threshold

     Davidson diagonalization with overlap
     ethr =  6.41E-04,  avg # of iterations =  1.0

     total energy              =   -3646.21373787 Ry
     Harris-Foulkes estimate   =   -3647.74873226 Ry
     estimated scf accuracy    <       3.04997960 Ry

[...]

     total energy              =   -3647.06964540 Ry
     Harris-Foulkes estimate   =   -3647.06964987 Ry
     estimated scf accuracy    <       0.00001745 Ry

     iteration # 14     ecut=    47.07 Ry     beta= 0.40
     Davidson diagonalization with overlap
     ethr =  3.73E-09,  avg # of iterations =  2.0

     End of self-consistent calculation

          k = 0.0000 0.0000 0.0000 ( 19546 PWs)   bands (ev):

   -62.5407 -62.5283 -62.5283 -62.5280 -62.5279 -62.5271 -62.5268 -62.5216
   -62.5208 -27.0340 -26.9976 -26.9976 -26.9953 -26.9952 -26.9948 -26.9948
   -26.9946 -26.9946 -26.9791 -26.9791 -26.9788 -26.9788 -26.9780 -26.9777
   -26.9511 -26.9504 -26.9497 -26.9497 -26.7890 -26.7890 -26.7885 -26.7885
   -26.7884 -26.7883 -26.7269 -26.7269 -11.5104 -11.5104 -11.5104 -11.5103
   -11.5103 -11.5103 -11.4424 -11.4424 -11.4155 -11.4155 -11.4155 -11.4155
   -11.4155 -11.4154 -11.3939 -11.3939 -11.3842 -11.3842 -11.3200 -11.3200
   -11.2965 -11.2411 -11.2411 -11.2205 -11.2205 -11.2205 -11.2205 -11.2205
   -11.2204 -11.1825 -11.1825 -11.1825 -11.1825 -11.1824 -11.1824 -11.1804
   -11.1804 -11.1479 -11.1479 -11.1479 -11.1478 -11.1478 -11.1478 -11.1088
   -11.1088  -6.3283  -4.6047  -4.3601  -4.3601  -4.3600  -4.3600  -4.3600
    -4.3600  -3.7974  -2.9514  -2.9513  -2.9513  -2.9512  -2.9512  -2.9511
    -2.8151  -2.3796  -2.3796  -2.1965  -2.1965  -2.1964  -2.1964  -2.1964
    -2.1963  -1.9487  -1.9487  -1.9487  -1.9487  -1.9486  -1.9486  -1.8122
    -1.8122  -1.7146  -1.7146  -0.5134  -0.5134   2.0116   2.0116   3.1957
     3.2218   3.2218   3.2218   3.2218   3.2218   3.2218   3.9168   3.9168
     4.3346   4.8241   4.8241   4.8241   4.8242   4.8242   4.8242   4.8397
     4.8397   5.1725   5.1727   5.3159   5.3159   5.4135   5.4135   5.4135
     5.4135   5.4135   5.4135   6.1333   6.1333   6.1575   6.1576   6.1576
     6.1576   6.1576   6.1576   6.3081   6.3081   6.3081   6.3082   6.3082
     6.3082   6.3213   6.3213   6.3213   6.3214   6.3214   6.3215   6.6839
     6.6839   6.9826   6.9826   7.2278   7.2278   7.3883   7.5056   7.5058
     7.9210   7.9210   7.9212   7.9212   7.9212   7.9213   8.1906   8.1906
     8.7032   8.7032   8.7820   8.7820   8.7820   8.7820   8.7821   8.7821
     8.8800   8.8800   8.8800   8.8801   8.8801   8.8801   9.4205   9.5570
     9.5570   9.6060   9.6061   9.6061   9.6061   9.6062   9.6062   9.6717
     9.6717   9.6717   9.6718   9.6718   9.6719   9.8587   9.8587   9.8587
     9.8587   9.8587   9.8588  10.7411  10.7411  10.7897  11.0575  11.0575
    11.1262  11.1262  11.1262  11.1262  11.1263  11.1263  11.2177  11.2177
    12.2979  12.2979  12.7503  12.7507  12.8107  12.8107  12.8186  12.8186
    12.8734  12.8734  12.8734  12.8734  12.8734  12.8734  13.5453  13.5453
    13.5454  13.5454  13.5455  13.5456  13.7999  13.7999  13.8002  13.8002
    13.8002  13.8003  14.0585  14.1484  14.1484  14.1484  14.1484  14.1484
    14.1484  14.2606  14.2606  14.4352  14.4353  14.8956  14.8956  14.9618
    14.9618  14.9619  14.9619  14.9620  14.9620  15.4373  15.4373  16.1376
    16.1378

     the Fermi energy is    12.5194 ev

!    total energy              =   -3647.06964731 Ry
     Harris-Foulkes estimate   =   -3647.06964780 Ry
     estimated scf accuracy    <       0.00000070 Ry

     The total energy is the sum of the following terms:

     one-electron contribution =   -1951.90351125 Ry
     hartree contribution      =    1236.12352666 Ry
     xc contribution           =   -1049.93785137 Ry
     ewald contribution        =   -1881.35014171 Ry
     smearing contrib. (-TS)   =      -0.00166965 Ry

     convergence has been achieved in  14 iterations

     Writing output data file Si_exc1.save\

     General routines

     Parallel routines

   This run was terminated on:  15:42:11  14May2021

   JOB DONE.